Bi12 Te18                               
   1.00000000000000     
     4.4508839933458990    0.0000000000000000    0.0000000000000003
    -2.2254416726303234    3.8545787946211560    0.0000000000000003
     0.0000000000000000    0.0000000000000000  127.7506424653103494
   Bi   Te
    12    18
Selective dynamics
Direct
  0.3333330000000032  0.6666669999999968  0.0256197176098070   F   F   F
  0.3333330000000032  0.6666669999999968  0.2244171238667126   T   T   T
 -0.0000000000000000  0.0000000000000000  0.1089033942160046   T   T   T
 -0.0000000000000000  0.0000000000000000  0.0577542256117231   T   T   T
  0.6666669999999968  0.3333330000000032  0.1922396974850604   T   T   T
  0.6666669999999968  0.3333330000000032  0.1410826082748003   T   T   T
  0.3333330000000032  0.6666669999999968  0.2755883021630806   T   T   T
  0.3333330000000032  0.6666669999999968  0.4744428039223169   T   T   T
  0.0000000000000000  0.0000000000000000  0.3589529676098095   F   F   F
 -0.0000000000000000  0.0000000000000000  0.3077498843727989   T   T   T
  0.6666669999999968  0.3333330000000032  0.4422643457351151   T   T   T
  0.6666669999999968  0.3333330000000032  0.3910919402212966   T   T   T
  0.6666669999999968  0.3333330000000032  0.2378907726084993   T   T   T
 -0.0000000000000000  0.0000000000000000  0.2083293774978534   T   T   T
 -0.0000000000000000  0.0000000000000000  0.0122324961298873   T   T   T
  0.3333330000000032  0.6666669999999968  0.0712318290412700   T   T   T
  0.6666669999999968  0.3333330000000032  0.0417150300179916   T   T   T
  0.6666669999999968  0.3333330000000032  0.0954357142238086   T   T   T
 -0.0000000000000000  0.0000000000000000  0.1545689832628561   T   T   T
  0.3333330000000032  0.6666669999999968  0.1250153661376774   T   T   T
  0.3333330000000032  0.6666669999999968  0.1787673508851912   T   T   T
  0.6666669999999968  0.3333330000000032  0.4878325349061510   T   T   T
 -0.0000000000000000  0.0000000000000000  0.4583198335393752   T   T   T
 -0.0000000000000000  0.0000000000000000  0.2621111480349236   T   T   T
  0.3333330000000032  0.6666669999999968  0.3212212294304403   T   T   T
  0.6666669999999968  0.3333330000000032  0.2916642469740420   T   T   T
  0.6666669999999968  0.3333330000000032  0.3454616874150235   T   T   T
 -0.0000000000000000  0.0000000000000000  0.4045488950907044   T   T   T
  0.3333330000000032  0.6666669999999968  0.3749903294311746   T   T   T
  0.3333330000000032  0.6666669999999968  0.4287740038994657   T   T   T
 
  0.00000000E+00  0.00000000E+00  0.00000000E+00
  0.00000000E+00  0.00000000E+00  0.00000000E+00
  0.00000000E+00  0.00000000E+00  0.00000000E+00
  0.00000000E+00  0.00000000E+00  0.00000000E+00
  0.00000000E+00  0.00000000E+00  0.00000000E+00
  0.00000000E+00  0.00000000E+00  0.00000000E+00
  0.00000000E+00  0.00000000E+00  0.00000000E+00
  0.00000000E+00  0.00000000E+00  0.00000000E+00
  0.00000000E+00  0.00000000E+00  0.00000000E+00
  0.00000000E+00  0.00000000E+00  0.00000000E+00
  0.00000000E+00  0.00000000E+00  0.00000000E+00
  0.00000000E+00  0.00000000E+00  0.00000000E+00
  0.00000000E+00  0.00000000E+00  0.00000000E+00
  0.00000000E+00  0.00000000E+00  0.00000000E+00
  0.00000000E+00  0.00000000E+00  0.00000000E+00
  0.00000000E+00  0.00000000E+00  0.00000000E+00
  0.00000000E+00  0.00000000E+00  0.00000000E+00
  0.00000000E+00  0.00000000E+00  0.00000000E+00
  0.00000000E+00  0.00000000E+00  0.00000000E+00
  0.00000000E+00  0.00000000E+00  0.00000000E+00
  0.00000000E+00  0.00000000E+00  0.00000000E+00
  0.00000000E+00  0.00000000E+00  0.00000000E+00
  0.00000000E+00  0.00000000E+00  0.00000000E+00
  0.00000000E+00  0.00000000E+00  0.00000000E+00
  0.00000000E+00  0.00000000E+00  0.00000000E+00
  0.00000000E+00  0.00000000E+00  0.00000000E+00
  0.00000000E+00  0.00000000E+00  0.00000000E+00
  0.00000000E+00  0.00000000E+00  0.00000000E+00
  0.00000000E+00  0.00000000E+00  0.00000000E+00
  0.00000000E+00  0.00000000E+00  0.00000000E+00
