Sb12 Te18
1.0
   3.7504494696278070    0.0000000000000000   -6.4959689523149020
  -0.0000000000000298   31.3373012839739999   -4.3306459949766776
   0.0000000000000000    0.0000000000000000   17.3225839799066819
Sb Te
12 18
Selective dynamics
direct
   0.6666669999999968    0.0633932223740982    0.2241816805935242 F F F Sb
   0.6666669999999968    0.2699407776259025    0.0258185694064752 T T T Sb
   0.0000000000000000    0.3967262223740943    0.0575149305935232 T T T Sb
   0.0000000000000000    0.6032737776259057    0.1091518194064760 T T T Sb
   0.3333330000000032    0.7300592223740975    0.1408481805935240 T T T Sb
   0.3333330000000032    0.9366067776259018    0.1924850694064750 T T T Sb
   0.6666669999999968    0.0633932223740982    0.4741816805935242 T T T Sb
   0.6666669999999968    0.2699407776259025    0.2758185694064752 F F F Sb
   0.0000000000000000    0.3967262223740943    0.3075149305935231 F F F Sb
   0.0000000000000000    0.6032737776259057    0.3591518194064760 T T T Sb
   0.3333330000000032    0.7300592223740975    0.3908481805935240 T T T Sb
   0.3333330000000032    0.9366067776259018    0.4424850694064750 T T T Sb
   0.0000000000000000    0.2153767133244300    0.0121775533311071 T T T Te
   0.3333330000000032    0.1179562866755733    0.2378224466688929 T T T Te
   0.0000000000000000    0.0000000000000000    0.2083333749999996 T T T Te
   0.3333330000000032    0.5487097133244260    0.0955108033311061 F F F Te
   0.6666669999999968    0.4512902866755741    0.0711559466688931 T T T Te
   0.3333330000000032    0.3333330000000032    0.0416666250000004 T T T Te
   0.6666669999999968    0.8820437133244268    0.1788443033311063 T T T Te
   0.0000000000000000    0.7846232866755701    0.1544891966688921 T T T Te
   0.6666669999999968    0.6666669999999968    0.1250001249999988 T T T Te
   0.0000000000000000    0.2153767133244300    0.2621775533311071 T T T Te
   0.3333330000000032    0.1179562866755733    0.4878224466688929 F F F Te
   0.0000000000000000    0.0000000000000000    0.4583333749999996 F F F Te
   0.3333330000000032    0.5487097133244260    0.3455108033311061 T T T Te
   0.6666669999999968    0.4512902866755741    0.3211559466688931 T T T Te
   0.3333330000000032    0.3333330000000032    0.2916666250000004 T T T Te
   0.6666669999999968    0.8820437133244268    0.4288443033311063 T T T Te
   0.0000000000000000    0.7846232866755701    0.4044891966688922 T T T Te
   0.6666669999999968    0.6666669999999968    0.3750001249999988 T T T Te
