P8 W4                                   
   1.00000000000000     
     3.1903650334664366   -0.0000000000000000    0.0000000000000002
     0.0000000000000018   11.2308876796819739    0.0000000000000007
     0.0000000000000000   -0.0000000000000000    5.0102889757187334
   P    W 
     8     4
Direct
  0.0000000000000000  0.5696264012020945  0.6163806528998351
  0.5000000000000000  0.9303735987979055  0.1163806528998350
  0.5000000000000000  0.7982099971050735  0.8006051405672615
 -0.0000000000000000  0.7017900028949265  0.3006051405672615
  0.5000000000000000  0.0696264012020945  0.6163806528998351
 -0.0000000000000000  0.4303735987979054  0.1163806528998350
  0.0000000000000000  0.2982099971050735  0.8006051405672615
  0.5000000000000000  0.2017900028949265  0.3006051405672615
 -0.0000000000000000  0.9065846416921820  0.5000142065328980
  0.5000000000000000  0.5934153583078180  0.0000142065328981
  0.5000000000000000  0.4065846416921821  0.5000142065328980
  0.0000000000000000  0.0934153583078180  0.0000142065328981
 
  0.00000000E+00  0.00000000E+00  0.00000000E+00
  0.00000000E+00  0.00000000E+00  0.00000000E+00
  0.00000000E+00  0.00000000E+00  0.00000000E+00
  0.00000000E+00  0.00000000E+00  0.00000000E+00
  0.00000000E+00  0.00000000E+00  0.00000000E+00
  0.00000000E+00  0.00000000E+00  0.00000000E+00
  0.00000000E+00  0.00000000E+00  0.00000000E+00
  0.00000000E+00  0.00000000E+00  0.00000000E+00
  0.00000000E+00  0.00000000E+00  0.00000000E+00
  0.00000000E+00  0.00000000E+00  0.00000000E+00
  0.00000000E+00  0.00000000E+00  0.00000000E+00
  0.00000000E+00  0.00000000E+00  0.00000000E+00
