Sb24 Se36                               
   1.00000000000000     
    11.5418767535567088    0.0000000000000000   -4.0285177225199735
    -0.0000000000000008   12.8369555896708718   -4.0285177225199726
     0.0000000000000000    0.0000000000000000   28.1996240576398165
   Sb   Se
    24    36
Selective dynamics
Direct
  0.0364171184346418  0.1380001599761655  0.0606310397729715   F   F   F
  0.9635828815653582  0.8619998400238345  0.0822261030841673   F   F   F
  0.5364171184346418  0.3619998400238345  0.0926309940654946   F   F   F
  0.4635828815653582  0.6380001599761655  0.0502261487916442   F   F   F
  0.3316805791111079  0.0356196075259021  0.0167571695195718   F   F   F
  0.6683194208888921  0.9643803924740979  0.1260999733375670   F   F   F
  0.8316805791111079  0.4643803924740979  0.0780087102264559   F   F   F
  0.1683194208888921  0.5356196075259021  0.0648484326306829   F   F   F
  0.0364171184346418  0.1380001599761655  0.2034881826301174   F   F   F
  0.9635828815653582  0.8619998400238345  0.2250832459413132   F   F   F
  0.5364171184346418  0.3619998400238345  0.2354881369226405   F   F   F
  0.4635828815653582  0.6380001599761655  0.1930832916487901   F   F   F
  0.3316805791111079  0.0356196075259021  0.1596143123767177   F   F   F
  0.6683194208888921  0.9643803924740979  0.2689571161947129   F   F   F
  0.8316805791111079  0.4643803924740979  0.2208658530836018   F   F   F
  0.1683194208888921  0.5356196075259021  0.2077055754878288   F   F   F
  0.0364171184346418  0.1380001599761655  0.3463453254872562   F   F   F
  0.9635828815653582  0.8619998400238345  0.3679403887984591   F   F   F
  0.5364171184346418  0.3619998400238345  0.3783452797797793   F   F   F
  0.4635828815653582  0.6380001599761655  0.3359404345059360   F   F   F
  0.3551809499532576  0.0334710281756203  0.3115054714541857   T   T   T
  0.6683194208888921  0.9643803924740979  0.4118142590518588   F   F   F
  0.8316805791111079  0.4643803924740979  0.3637229959407406   F   F   F
  0.1683194208888921  0.5356196075259021  0.3505627183449747   F   F   F
  0.1329154642376125  0.9529482086369754  0.0479805246963707   F   F   F
  0.8670845357623875  0.0470517913630246  0.0948766181607752   F   F   F
  0.6329154642376125  0.5470517913630246  0.1328524650858043   F   F   F
  0.3670845357623875  0.4529482086369754  0.0100046777713345   F   F   F
  0.1908984691084257  0.2041449022622999  0.0207204816243873   F   F   F
  0.8091015308915743  0.7958550977377001  0.1221366612327515   F   F   F
  0.6908984691084257  0.2958550977377001  0.0338219381208731   F   F   F
  0.3091015308915743  0.7041449022622999  0.1090352047362657   F   F   F
  0.0475454741145285  0.6275886407212496  0.1321620164051112   F   F   F
  0.9524545258854715  0.3724113592787504  0.0106951264520347   F   F   F
  0.5475454741145285  0.8724113592787504  0.0242795476276072   F   F   F
  0.4524545258854715  0.1275886407212496  0.1185775952295316   F   F   F
  0.1183860963306215  0.9372494259586717  0.1802192072376845   T   T   T
  0.8670845357623875  0.0470517913630246  0.2377337610179140   F   F   F
  0.6329154642376125  0.5470517913630246  0.2757096079429502   F   F   F
  0.3396323128928143  0.4605370970153825  0.1429100614676566   T   T   T
  0.1850016840372537  0.2037387028648528  0.1623302037362971   T   T   T
  0.8091015308915743  0.7958550977377001  0.2649938040898974   F   F   F
  0.6914655791035541  0.2960198211677912  0.1764844819715500   T   T   T
  0.3136169220153012  0.7028167219027533  0.2543703318221641   T   T   T
  0.0458760478518899  0.6221140502149847  0.2744902321591053   T   T   T
  0.9562342212045205  0.3796572961017052  0.1556464456197205   T   T   T
  0.5478855935518363  0.8704933056728993  0.1676785860634110   T   T   T
  0.4434509843376052  0.1278423317709266  0.2598965386592025   T   T   T
  0.1320122328084019  0.9636191165339445  0.3451166323652617   T   T   T
  0.8381448528291051  0.0414832828384838  0.3859175723736750   T   T   T
  0.6483221485127326  0.5336912441331896  0.4198158923414068   T   T   T
  0.3784661862843406  0.4422775958011543  0.2980237329004479   T   T   T
  0.1837201697521785  0.1966186571840630  0.3057154362848584   T   T   T
  0.8129842043050428  0.8029479027397132  0.4107644800560877   T   T   T
  0.6736785768750038  0.2840536693783907  0.3142881824946567   T   T   T
  0.3182874632473895  0.6905374218788516  0.3945343171021097   T   T   T
  0.0099205469350983  0.6150626168193664  0.3987803965822396   T   T   T
  0.9524545258854715  0.3724113592787504  0.2964094121663194   F   F   F
  0.5475454741145285  0.8724113592787504  0.3099938333418990   F   F   F
  0.4786571136788626  0.1397063422033785  0.3996099612692985   T   T   T
 
  0.00000000E+00  0.00000000E+00  0.00000000E+00
  0.00000000E+00  0.00000000E+00  0.00000000E+00
  0.00000000E+00  0.00000000E+00  0.00000000E+00
  0.00000000E+00  0.00000000E+00  0.00000000E+00
  0.00000000E+00  0.00000000E+00  0.00000000E+00
  0.00000000E+00  0.00000000E+00  0.00000000E+00
  0.00000000E+00  0.00000000E+00  0.00000000E+00
  0.00000000E+00  0.00000000E+00  0.00000000E+00
  0.00000000E+00  0.00000000E+00  0.00000000E+00
  0.00000000E+00  0.00000000E+00  0.00000000E+00
  0.00000000E+00  0.00000000E+00  0.00000000E+00
  0.00000000E+00  0.00000000E+00  0.00000000E+00
  0.00000000E+00  0.00000000E+00  0.00000000E+00
  0.00000000E+00  0.00000000E+00  0.00000000E+00
  0.00000000E+00  0.00000000E+00  0.00000000E+00
  0.00000000E+00  0.00000000E+00  0.00000000E+00
  0.00000000E+00  0.00000000E+00  0.00000000E+00
  0.00000000E+00  0.00000000E+00  0.00000000E+00
  0.00000000E+00  0.00000000E+00  0.00000000E+00
  0.00000000E+00  0.00000000E+00  0.00000000E+00
  0.00000000E+00  0.00000000E+00  0.00000000E+00
  0.00000000E+00  0.00000000E+00  0.00000000E+00
  0.00000000E+00  0.00000000E+00  0.00000000E+00
  0.00000000E+00  0.00000000E+00  0.00000000E+00
  0.00000000E+00  0.00000000E+00  0.00000000E+00
  0.00000000E+00  0.00000000E+00  0.00000000E+00
  0.00000000E+00  0.00000000E+00  0.00000000E+00
  0.00000000E+00  0.00000000E+00  0.00000000E+00
  0.00000000E+00  0.00000000E+00  0.00000000E+00
  0.00000000E+00  0.00000000E+00  0.00000000E+00
  0.00000000E+00  0.00000000E+00  0.00000000E+00
  0.00000000E+00  0.00000000E+00  0.00000000E+00
  0.00000000E+00  0.00000000E+00  0.00000000E+00
  0.00000000E+00  0.00000000E+00  0.00000000E+00
  0.00000000E+00  0.00000000E+00  0.00000000E+00
  0.00000000E+00  0.00000000E+00  0.00000000E+00
  0.00000000E+00  0.00000000E+00  0.00000000E+00
  0.00000000E+00  0.00000000E+00  0.00000000E+00
  0.00000000E+00  0.00000000E+00  0.00000000E+00
  0.00000000E+00  0.00000000E+00  0.00000000E+00
  0.00000000E+00  0.00000000E+00  0.00000000E+00
  0.00000000E+00  0.00000000E+00  0.00000000E+00
  0.00000000E+00  0.00000000E+00  0.00000000E+00
  0.00000000E+00  0.00000000E+00  0.00000000E+00
  0.00000000E+00  0.00000000E+00  0.00000000E+00
  0.00000000E+00  0.00000000E+00  0.00000000E+00
  0.00000000E+00  0.00000000E+00  0.00000000E+00
  0.00000000E+00  0.00000000E+00  0.00000000E+00
  0.00000000E+00  0.00000000E+00  0.00000000E+00
  0.00000000E+00  0.00000000E+00  0.00000000E+00
  0.00000000E+00  0.00000000E+00  0.00000000E+00
  0.00000000E+00  0.00000000E+00  0.00000000E+00
  0.00000000E+00  0.00000000E+00  0.00000000E+00
  0.00000000E+00  0.00000000E+00  0.00000000E+00
  0.00000000E+00  0.00000000E+00  0.00000000E+00
  0.00000000E+00  0.00000000E+00  0.00000000E+00
  0.00000000E+00  0.00000000E+00  0.00000000E+00
  0.00000000E+00  0.00000000E+00  0.00000000E+00
  0.00000000E+00  0.00000000E+00  0.00000000E+00
  0.00000000E+00  0.00000000E+00  0.00000000E+00
