Bi12 Te18                               
   1.00000000000000     
     3.8545787946211560    0.0000000000000000   -2.2254416726303239
     0.0000000000000051   31.9376606163275873    0.0000000000000020
     0.0000000000000000    0.0000000000000000   17.8035359733835961
   Bi   Te
    12    18
Selective dynamics
Direct
  0.7006416467409193  0.2807805952637341  0.0586539483704591   T   T   T
  0.6666669999999968  0.0641886295607748  0.0416666249999977   F   F   F
 -0.0510888869900833  0.5976671096087837  0.1827889315049606   T   T   T
 -0.0323113578559819  0.4124197050000550  0.1921776960720112   T   T   T
  0.3351401164410466  0.9212987148706566  0.1259036832205214   T   T   T
  0.3574495002067466  0.7189627036701035  0.1370583751033714   T   T   T
  0.6666669999999968  0.2691453704392259  0.2916666249999977   F   F   F
  0.6666669999999968  0.0641886295607748  0.2916666249999977   F   F   F
 -0.0330890322345317  0.6036613888299543  0.4417888588827365   T   T   T
 -0.0369823161879698  0.3905785565245686  0.4398422169060174   T   T   T
  0.2968495996747678  0.9527649870662994  0.3567584248373819   T   T   T
  0.3336685365808489  0.7437635893358598  0.3751678932904226   T   T   T
  0.2961097927973153  0.1171953154866488  0.1063885213986556   T   T   T
 -0.0531324132256113  0.0030111848752449  0.1817671683871966   T   T   T
 -0.0232089117657194  0.2186491188754560  0.1967289191171425   T   T   T
  0.6783050994406039  0.4620976051714001  0.0474856747203013   T   T   T
  0.3333330000000032  0.3333330000000032  0.1250001249999997   F   F   F
  0.3403244116754495  0.5387699347531371  0.1284958308377228   T   T   T
 -0.0121550168995872  0.7842025215520122  0.2022558665502087   T   T   T
  0.6740673215911379  0.6660420019454678  0.0453667857955684   T   T   T
  0.6549655733458022  0.8784671560481664  0.0358159116729005   T   T   T
  0.3333330000000032  0.1181527906473150  0.3750001249999997   F   F   F
  0.0000000000000000  0.0000000000000000  0.4583333750000023   F   F   F
 -0.0426547554101631  0.2171116272226426  0.4370059972949207   T   T   T
  0.6854336811267524  0.4554654049633740  0.3010499655633755   T   T   T
  0.4087652657858101  0.3279982102319451  0.4127162578929031   T   T   T
  0.3413962947118860  0.5506667333440219  0.3790317723559410   T   T   T
  0.0123325154648657  0.7874637256298352  0.4644996327324351   T   T   T
  0.6790419087973529  0.6635307297510956  0.2978540793986758   T   T   T
  0.6936096789477251  0.8847218048773282  0.3051379644738619   T   T   T
 
  0.00000000E+00  0.00000000E+00  0.00000000E+00
  0.00000000E+00  0.00000000E+00  0.00000000E+00
  0.00000000E+00  0.00000000E+00  0.00000000E+00
  0.00000000E+00  0.00000000E+00  0.00000000E+00
  0.00000000E+00  0.00000000E+00  0.00000000E+00
  0.00000000E+00  0.00000000E+00  0.00000000E+00
  0.00000000E+00  0.00000000E+00  0.00000000E+00
  0.00000000E+00  0.00000000E+00  0.00000000E+00
  0.00000000E+00  0.00000000E+00  0.00000000E+00
  0.00000000E+00  0.00000000E+00  0.00000000E+00
  0.00000000E+00  0.00000000E+00  0.00000000E+00
  0.00000000E+00  0.00000000E+00  0.00000000E+00
  0.00000000E+00  0.00000000E+00  0.00000000E+00
  0.00000000E+00  0.00000000E+00  0.00000000E+00
  0.00000000E+00  0.00000000E+00  0.00000000E+00
  0.00000000E+00  0.00000000E+00  0.00000000E+00
  0.00000000E+00  0.00000000E+00  0.00000000E+00
  0.00000000E+00  0.00000000E+00  0.00000000E+00
  0.00000000E+00  0.00000000E+00  0.00000000E+00
  0.00000000E+00  0.00000000E+00  0.00000000E+00
  0.00000000E+00  0.00000000E+00  0.00000000E+00
  0.00000000E+00  0.00000000E+00  0.00000000E+00
  0.00000000E+00  0.00000000E+00  0.00000000E+00
  0.00000000E+00  0.00000000E+00  0.00000000E+00
  0.00000000E+00  0.00000000E+00  0.00000000E+00
  0.00000000E+00  0.00000000E+00  0.00000000E+00
  0.00000000E+00  0.00000000E+00  0.00000000E+00
  0.00000000E+00  0.00000000E+00  0.00000000E+00
  0.00000000E+00  0.00000000E+00  0.00000000E+00
  0.00000000E+00  0.00000000E+00  0.00000000E+00
