Bi12 Se18                               
   1.00000000000000     
     4.1925840251566973    0.0000000000000000    0.0000000000000003
    -2.0962921931376401    3.6308841690405549    0.0000000000000003
     0.0000000000000000    0.0000000000000000  124.6983106746735643
   Bi   Se
    12    18
Selective dynamics
Direct
  0.3333330000000032  0.6666669999999968  0.2239827755822663   T   T   T
  0.3333330000000032  0.6666669999999968  0.0260357288692390   F   F   F
 -0.0000000000000000  0.0000000000000000  0.0573109774345348   T   T   T
 -0.0000000000000000  0.0000000000000000  0.1093486704195911   T   T   T
  0.6666669999999968  0.3333330000000032  0.1406551633718624   T   T   T
  0.6666669999999968  0.3333330000000032  0.1926809910435863   T   T   T
  0.3333330000000032  0.6666669999999968  0.4740042274693661   T   T   T
  0.3333330000000032  0.6666669999999968  0.2760150897444578   T   T   T
  0.0000000000000000  0.0000000000000000  0.3072977711307630   F   F   F
 -0.0000000000000000  0.0000000000000000  0.3593482846540916   T   T   T
  0.6666669999999968  0.3333330000000032  0.3906530750772628   T   T   T
  0.6666669999999968  0.3333330000000032  0.4426953093608535   T   T   T
 -0.0000000000000000  0.0000000000000000  0.2083376590631232   T   T   T
  0.6666669999999968  0.3333330000000032  0.2365261938616344   T   T   T
 -0.0000000000000000  0.0000000000000000  0.0135102054654048   T   T   T
  0.6666669999999968  0.3333330000000032  0.0416972800894493   T   T   T
  0.3333330000000032  0.6666669999999968  0.0698665063847551   T   T   T
  0.6666669999999968  0.3333330000000032  0.0968067010777558   T   T   T
  0.3333330000000032  0.6666669999999968  0.1250004154608394   T   T   T
 -0.0000000000000000  0.0000000000000000  0.1532011655649977   T   T   T
  0.3333330000000032  0.6666669999999968  0.1801336438651652   T   T   T
 -0.0000000000000000  0.0000000000000000  0.4583122911783848   T   T   T
  0.6666669999999968  0.3333330000000032  0.4865095967411355   T   T   T
 -0.0000000000000000  0.0000000000000000  0.2634726688745713   T   T   T
  0.6666669999999968  0.3333330000000032  0.2916659118211172   T   T   T
  0.3333330000000032  0.6666669999999968  0.3198543514890695   T   T   T
  0.6666669999999968  0.3333330000000032  0.3468009182941847   T   T   T
  0.3333330000000032  0.6666669999999968  0.3749983332860807   T   T   T
 -0.0000000000000000  0.0000000000000000  0.4031928143288839   T   T   T
  0.3333330000000032  0.6666669999999968  0.4301365681830475   T   T   T
 
  0.00000000E+00  0.00000000E+00  0.00000000E+00
  0.00000000E+00  0.00000000E+00  0.00000000E+00
  0.00000000E+00  0.00000000E+00  0.00000000E+00
  0.00000000E+00  0.00000000E+00  0.00000000E+00
  0.00000000E+00  0.00000000E+00  0.00000000E+00
  0.00000000E+00  0.00000000E+00  0.00000000E+00
  0.00000000E+00  0.00000000E+00  0.00000000E+00
  0.00000000E+00  0.00000000E+00  0.00000000E+00
  0.00000000E+00  0.00000000E+00  0.00000000E+00
  0.00000000E+00  0.00000000E+00  0.00000000E+00
  0.00000000E+00  0.00000000E+00  0.00000000E+00
  0.00000000E+00  0.00000000E+00  0.00000000E+00
  0.00000000E+00  0.00000000E+00  0.00000000E+00
  0.00000000E+00  0.00000000E+00  0.00000000E+00
  0.00000000E+00  0.00000000E+00  0.00000000E+00
  0.00000000E+00  0.00000000E+00  0.00000000E+00
  0.00000000E+00  0.00000000E+00  0.00000000E+00
  0.00000000E+00  0.00000000E+00  0.00000000E+00
  0.00000000E+00  0.00000000E+00  0.00000000E+00
  0.00000000E+00  0.00000000E+00  0.00000000E+00
  0.00000000E+00  0.00000000E+00  0.00000000E+00
  0.00000000E+00  0.00000000E+00  0.00000000E+00
  0.00000000E+00  0.00000000E+00  0.00000000E+00
  0.00000000E+00  0.00000000E+00  0.00000000E+00
  0.00000000E+00  0.00000000E+00  0.00000000E+00
  0.00000000E+00  0.00000000E+00  0.00000000E+00
  0.00000000E+00  0.00000000E+00  0.00000000E+00
  0.00000000E+00  0.00000000E+00  0.00000000E+00
  0.00000000E+00  0.00000000E+00  0.00000000E+00
  0.00000000E+00  0.00000000E+00  0.00000000E+00
