Sb24 Se36                               
   1.00000000000000     
     4.0285177225199735    0.0000000000000000    0.0000000000000002
     0.0000000000000019   11.5418767535567088    0.0000000000000007
     0.0000000000000000    0.0000000000000000   89.8586891276960955
   Sb   Se
    24    36
Selective dynamics
Direct
  0.7500000000000000  0.0356617424928815  0.1266122345263515   T   T   T
  0.2500000000000000  0.9633912729290515  0.0872247605780141   T   T   T
  0.2500000000000000  0.5364171184346418  0.0159999771462651   F   F   F
  0.7500000000000000  0.4635828815653582  0.0554285942823114   F   F   F
  0.2500000000000000  0.3313793382676081  0.1121594158140350   T   T   T
  0.7500000000000000  0.6679629483446481  0.1017521456349790   T   T   T
  0.7500000000000000  0.8316805791111079  0.0306257703534456   F   F   F
  0.2500000000000000  0.1683194208888921  0.0408028010751309   F   F   F
  0.7500000000000000  0.0367550883962673  0.2696596484697711   T   T   T
  0.2500000000000000  0.9632164499986889  0.2303425681801451   T   T   T
  0.2500000000000000  0.5364171184346418  0.1588571200034039   F   F   F
  0.7500000000000000  0.4635828815653582  0.1982857371394502   F   F   F
  0.2500000000000000  0.3319414857295434  0.2550877598561175   T   T   T
  0.7500000000000000  0.6681617300256379  0.2449161605905045   T   T   T
  0.7500000000000000  0.8316805791111079  0.1734829132105844   F   F   F
  0.2500000000000000  0.1681106509018456  0.1836949389639273   T   T   T
  0.7500000000000000  0.0364171184346418  0.4125714514251655   F   F   F
  0.2500000000000000  0.9635828815653582  0.3731428342891192   F   F   F
  0.2500000000000000  0.5358915619567273  0.3019062030527679   T   T   T
  0.7500000000000000  0.4624438296409745  0.3412590616390190   T   T   T
  0.2500000000000000  0.3407470458269904  0.3993542019199630   T   T   T
  0.7500000000000000  0.6689932422847971  0.3875751220885303   T   T   T
  0.7500000000000000  0.8312505441206354  0.3164111487641281   T   T   T
  0.2500000000000000  0.1678216548062607  0.3266423330534238   T   T   T
  0.7500000000000000  0.1322800954072215  0.1002087686448244   T   T   T
  0.2500000000000000  0.8662564765857638  0.1136539899916540   T   T   T
  0.2500000000000000  0.6276031337090812  0.0424778162002304   T   T   T
  0.7500000000000000  0.3631551050642349  0.0292199403225828   T   T   T
  0.2500000000000000  0.1898514811400420  0.1361790729610408   T   T   T
  0.7500000000000000  0.8086110813193771  0.0777157132217557   T   T   T
  0.7500000000000000  0.6861941862082505  0.0063677809678321   T   T   T
  0.2500000000000000  0.3068509177287390  0.0649170333779197   T   T   T
  0.7500000000000000  0.0436981560289395  0.0536602287499267   T   T   T
  0.2500000000000000  0.9471236736640523  0.0171786180930021   T   T   T
  0.2500000000000000  0.5465868520319368  0.0886814330634754   T   T   T
  0.7500000000000000  0.4520680026710329  0.1252680911050817   T   T   T
  0.7500000000000000  0.1328458358322713  0.2432217973324548   T   T   T
  0.2500000000000000  0.8669508781933248  0.2567720783160719   T   T   T
  0.2500000000000000  0.6327266174231917  0.1852976556849020   T   T   T
  0.7500000000000000  0.3671754305894039  0.1718487028372604   T   T   T
  0.2500000000000000  0.1909564956202103  0.2791790002414269   T   T   T
  0.7500000000000000  0.8088857045250951  0.2208212234386508   T   T   T
  0.7500000000000000  0.6908411317080064  0.1493824027568194   T   T   T
  0.2500000000000000  0.3091507711617711  0.2077748094424405   T   T   T
  0.7500000000000000  0.0474058535022027  0.1968194757584683   T   T   T
  0.2500000000000000  0.9524325447849876  0.1603571060758373   T   T   T
  0.2500000000000000  0.5473955103954280  0.2317921924728478   T   T   T
  0.7500000000000000  0.4525341187706809  0.2682244308338355   T   T   T
  0.7500000000000000  0.1289111425624018  0.3862044865836021   T   T   T
  0.2500000000000000  0.8623501014302435  0.3992756646674411   T   T   T
  0.2500000000000000  0.6322216092031591  0.3283161377264198   T   T   T
  0.7500000000000000  0.3660105232795878  0.3148036681954192   T   T   T
  0.2500000000000000  0.1843691347347696  0.4227747551215901   T   T   T
  0.7500000000000000  0.8067732142201890  0.3634780531999860   T   T   T
  0.7500000000000000  0.6899880397181337  0.2923477188811879   T   T   T
  0.2500000000000000  0.3079485744447041  0.3507339579316096   T   T   T
  0.7500000000000000  0.0467116809975144  0.3397621542482930   T   T   T
  0.2500000000000000  0.9516540225575445  0.3032440729758036   T   T   T
  0.2500000000000000  0.5419853244852143  0.3751225106670660   T   T   T
  0.7500000000000000  0.4546333513744777  0.4127693426048203   T   T   T
 
  0.00000000E+00  0.00000000E+00  0.00000000E+00
  0.00000000E+00  0.00000000E+00  0.00000000E+00
  0.00000000E+00  0.00000000E+00  0.00000000E+00
  0.00000000E+00  0.00000000E+00  0.00000000E+00
  0.00000000E+00  0.00000000E+00  0.00000000E+00
  0.00000000E+00  0.00000000E+00  0.00000000E+00
  0.00000000E+00  0.00000000E+00  0.00000000E+00
  0.00000000E+00  0.00000000E+00  0.00000000E+00
  0.00000000E+00  0.00000000E+00  0.00000000E+00
  0.00000000E+00  0.00000000E+00  0.00000000E+00
  0.00000000E+00  0.00000000E+00  0.00000000E+00
  0.00000000E+00  0.00000000E+00  0.00000000E+00
  0.00000000E+00  0.00000000E+00  0.00000000E+00
  0.00000000E+00  0.00000000E+00  0.00000000E+00
  0.00000000E+00  0.00000000E+00  0.00000000E+00
  0.00000000E+00  0.00000000E+00  0.00000000E+00
  0.00000000E+00  0.00000000E+00  0.00000000E+00
  0.00000000E+00  0.00000000E+00  0.00000000E+00
  0.00000000E+00  0.00000000E+00  0.00000000E+00
  0.00000000E+00  0.00000000E+00  0.00000000E+00
  0.00000000E+00  0.00000000E+00  0.00000000E+00
  0.00000000E+00  0.00000000E+00  0.00000000E+00
  0.00000000E+00  0.00000000E+00  0.00000000E+00
  0.00000000E+00  0.00000000E+00  0.00000000E+00
  0.00000000E+00  0.00000000E+00  0.00000000E+00
  0.00000000E+00  0.00000000E+00  0.00000000E+00
  0.00000000E+00  0.00000000E+00  0.00000000E+00
  0.00000000E+00  0.00000000E+00  0.00000000E+00
  0.00000000E+00  0.00000000E+00  0.00000000E+00
  0.00000000E+00  0.00000000E+00  0.00000000E+00
  0.00000000E+00  0.00000000E+00  0.00000000E+00
  0.00000000E+00  0.00000000E+00  0.00000000E+00
  0.00000000E+00  0.00000000E+00  0.00000000E+00
  0.00000000E+00  0.00000000E+00  0.00000000E+00
  0.00000000E+00  0.00000000E+00  0.00000000E+00
  0.00000000E+00  0.00000000E+00  0.00000000E+00
  0.00000000E+00  0.00000000E+00  0.00000000E+00
  0.00000000E+00  0.00000000E+00  0.00000000E+00
  0.00000000E+00  0.00000000E+00  0.00000000E+00
  0.00000000E+00  0.00000000E+00  0.00000000E+00
  0.00000000E+00  0.00000000E+00  0.00000000E+00
  0.00000000E+00  0.00000000E+00  0.00000000E+00
  0.00000000E+00  0.00000000E+00  0.00000000E+00
  0.00000000E+00  0.00000000E+00  0.00000000E+00
  0.00000000E+00  0.00000000E+00  0.00000000E+00
  0.00000000E+00  0.00000000E+00  0.00000000E+00
  0.00000000E+00  0.00000000E+00  0.00000000E+00
  0.00000000E+00  0.00000000E+00  0.00000000E+00
  0.00000000E+00  0.00000000E+00  0.00000000E+00
  0.00000000E+00  0.00000000E+00  0.00000000E+00
  0.00000000E+00  0.00000000E+00  0.00000000E+00
  0.00000000E+00  0.00000000E+00  0.00000000E+00
  0.00000000E+00  0.00000000E+00  0.00000000E+00
  0.00000000E+00  0.00000000E+00  0.00000000E+00
  0.00000000E+00  0.00000000E+00  0.00000000E+00
  0.00000000E+00  0.00000000E+00  0.00000000E+00
  0.00000000E+00  0.00000000E+00  0.00000000E+00
  0.00000000E+00  0.00000000E+00  0.00000000E+00
  0.00000000E+00  0.00000000E+00  0.00000000E+00
  0.00000000E+00  0.00000000E+00  0.00000000E+00
