Bi12 Se18                               
   1.00000000000000     
     3.6308841690405544    0.0000000000000000   -6.2888762182943383
    -0.0000000000000088   31.1745776686683875   -4.1925840251566964
     0.0000000000000000    0.0000000000000000   16.7703361006267890
   Bi   Se
    12    18
Selective dynamics
Direct
  0.6666669999999968  0.0625245845230467  0.2239645211307604   F   F   F
  0.7446010261896155  0.2711186785597388  0.0598005476632179   T   T   T
 -0.0313535405072779  0.3945616795898083  0.0678368213347786   T   T   T
  0.0855409697198307  0.6056742386450797  0.1277009152472760   T   T   T
  0.3206363668547861  0.7278084451390671  0.1587719524329217   T   T   T
  0.4506527851445504  0.9408069808108451  0.2274864320820912   T   T   T
  0.6666669999999968  0.0625245845230467  0.4739645211307604   F   F   F
  0.6666669999999968  0.2708094154769469  0.2760357288692390   F   F   F
 -0.1243266852084993  0.3933188303515396  0.2717169754735645   T   T   T
  0.0130058768148463  0.6055848192723369  0.3414008635292678   T   T   T
  0.2473262649349377  0.7276794471328396  0.3720784647575950   T   T   T
  0.3854124615452544  0.9378727078060848  0.4439320821503183   T   T   T
  0.1182643984968325  0.0014305378297274  0.2613583353759446   T   T   T
  0.3500112496490579  0.1040903985170271  0.2445764684197594   T   T   T
  0.1091875171397704  0.2191246948602050  0.0690076144697459   T   T   T
  0.3333330000000032  0.3333330000000032  0.0416666250000048   F   F   F
  0.6696395740503719  0.4443350997517018  0.0866348288508673   T   T   T
  0.4124469821881179  0.5579107483933551  0.1195165671045825   T   T   T
  0.7011989702698028  0.6666595965534222  0.1423833190697594   T   T   T
  0.0088030925726363  0.7754757579396702  0.1744806599077867   T   T   T
  0.7569211809592613  0.8949828710099128  0.2065037236552262   T   T   T
  0.0000000000000000  0.0000000000000000  0.4583333750000023   F   F   F
  0.3333330000000032  0.1127666293426088  0.4865250323356562   F   F   F
  0.0087156068838030  0.2267575529705156  0.2690239971623943   T   T   T
  0.2759191380892188  0.3343510782771293  0.2691457507159126   T   T   T
  0.5685137168309434  0.4416760617226606  0.2893409420946256   T   T   T
  0.3249782921003160  0.5578940773148852  0.3257861280099784   T   T   T
  0.6317109962407161  0.6667036280688404  0.3575458261362507   T   T   T
 -0.0789700794952659  0.7754207167965879  0.3805298830556246   T   T   T
  0.6651212806813447  0.8891764610884972  0.4139711534280703   T   T   T
 
  0.00000000E+00  0.00000000E+00  0.00000000E+00
  0.00000000E+00  0.00000000E+00  0.00000000E+00
  0.00000000E+00  0.00000000E+00  0.00000000E+00
  0.00000000E+00  0.00000000E+00  0.00000000E+00
  0.00000000E+00  0.00000000E+00  0.00000000E+00
  0.00000000E+00  0.00000000E+00  0.00000000E+00
  0.00000000E+00  0.00000000E+00  0.00000000E+00
  0.00000000E+00  0.00000000E+00  0.00000000E+00
  0.00000000E+00  0.00000000E+00  0.00000000E+00
  0.00000000E+00  0.00000000E+00  0.00000000E+00
  0.00000000E+00  0.00000000E+00  0.00000000E+00
  0.00000000E+00  0.00000000E+00  0.00000000E+00
  0.00000000E+00  0.00000000E+00  0.00000000E+00
  0.00000000E+00  0.00000000E+00  0.00000000E+00
  0.00000000E+00  0.00000000E+00  0.00000000E+00
  0.00000000E+00  0.00000000E+00  0.00000000E+00
  0.00000000E+00  0.00000000E+00  0.00000000E+00
  0.00000000E+00  0.00000000E+00  0.00000000E+00
  0.00000000E+00  0.00000000E+00  0.00000000E+00
  0.00000000E+00  0.00000000E+00  0.00000000E+00
  0.00000000E+00  0.00000000E+00  0.00000000E+00
  0.00000000E+00  0.00000000E+00  0.00000000E+00
  0.00000000E+00  0.00000000E+00  0.00000000E+00
  0.00000000E+00  0.00000000E+00  0.00000000E+00
  0.00000000E+00  0.00000000E+00  0.00000000E+00
  0.00000000E+00  0.00000000E+00  0.00000000E+00
  0.00000000E+00  0.00000000E+00  0.00000000E+00
  0.00000000E+00  0.00000000E+00  0.00000000E+00
  0.00000000E+00  0.00000000E+00  0.00000000E+00
  0.00000000E+00  0.00000000E+00  0.00000000E+00
