Bi12 Se18
1.0
   3.6308841690405544    0.0000000000000000   -6.2888762182943383
  -0.0000000000000088   31.1745776686683875   -4.1925840251566964
   0.0000000000000000    0.0000000000000000   16.7703361006267890
Bi Se
12 18
Selective dynamics
direct
   0.6666669999999968    0.0625245845230452    0.2239645211307618 F F F Bi
   0.6666669999999967    0.2708094154769484    0.0260357288692376 T T T Bi
   0.0000000000000000    0.3958575845230485    0.0572977711307626 T T T Bi
   0.0000000000000000    0.6041424154769517    0.1093689788692384 T T T Bi
   0.3333330000000033    0.7291905845230516    0.1406310211307634 T T T Bi
   0.3333330000000032    0.9374754154769550    0.1927022288692393 T T T Bi
   0.6666669999999968    0.0625245845230452    0.4739645211307618 F F F Bi
   0.6666669999999967    0.2708094154769484    0.2760357288692376 F F F Bi
   0.0000000000000000    0.3958575845230485    0.3072977711307626 T T T Bi
   0.0000000000000000    0.6041424154769517    0.3593689788692384 T T T Bi
   0.3333330000000033    0.7291905845230516    0.3906310211307634 T T T Bi
   0.3333330000000032    0.9374754154769550    0.4427022288692393 T T T Bi
   0.0000000000000000    0.0000000000000000    0.2083333750000005 T T T Se
   0.3333330000000032    0.1127666293426093    0.2365250323356528 T T T Se
   0.0000000000000000    0.2205663706573869    0.0134749676643472 T T T Se
   0.3333330000000033    0.3333330000000032    0.0416666250000013 F F F Se
   0.6666669999999967    0.4461006293426100    0.0698585323356530 T T T Se
   0.3333330000000032    0.5538993706573899    0.0968082176643480 T T T Se
   0.6666669999999969    0.6666669999999969    0.1250001249999997 T T T Se
   0.0000000000000000    0.7794336293426134    0.1531917823356538 T T T Se
   0.6666669999999968    0.8872333706573907    0.1801417176643482 T T T Se
   0.0000000000000000    0.0000000000000000    0.4583333750000005 F F F Se
   0.3333330000000032    0.1127666293426093    0.4865250323356528 F F F Se
   0.0000000000000000    0.2205663706573869    0.2634749676643472 T T T Se
   0.3333330000000033    0.3333330000000032    0.2916666250000013 T T T Se
   0.6666669999999967    0.4461006293426100    0.3198585323356530 T T T Se
   0.3333330000000032    0.5538993706573899    0.3468082176643480 T T T Se
   0.6666669999999969    0.6666669999999969    0.3750001249999997 T T T Se
   0.0000000000000000    0.7794336293426134    0.4031917823356538 T T T Se
   0.6666669999999968    0.8872333706573907    0.4301417176643482 T T T Se
