Bi12 Se18                               
   1.00000000000000     
     3.6308841690405553    0.0000000000000000   -2.0962921931376401
     0.0000000000000050   31.1745776686683911    0.0000000000000019
     0.0000000000000000    0.0000000000000000   16.7703361006267890
   Bi   Se
    12    18
Selective dynamics
Direct
  0.6666669999999968  0.0625245845230467  0.0416666249999977   F   F   F
  0.6970680283267960  0.2843014415448079  0.0568671391633973   T   T   T
 -0.0421237679147865  0.4091006914516057  0.1872714910426090   T   T   T
 -0.0425643055789228  0.5991812393863041  0.1870512222105409   T   T   T
  0.3019111839698037  0.7266995196086427  0.1092892169848999   T   T   T
  0.3080160438725101  0.9253457356480986  0.1123416469362532   T   T   T
  0.6666669999999968  0.0625245845230467  0.2916666249999977   F   F   F
  0.6666669999999968  0.2708094154769469  0.2916666249999977   F   F   F
 -0.0293964230498271  0.3912311134906669  0.4436351634750888   T   T   T
 -0.0413466824697039  0.6088931421647293  0.4376600337651503   T   T   T
  0.3656424316375413  0.7376838956236113  0.3911548408187687   T   T   T
  0.3557734972698737  0.9463733815658706  0.3862203736349349   T   T   T
 -0.0587951754888843  0.0041108712005202  0.1789357872555601   T   T   T
  0.2896171301837596  0.1125033164770122  0.1031421900918779   T   T   T
 -0.0379173544439110  0.2254382892521434  0.1893746977780467   T   T   T
  0.3333330000000032  0.3333330000000032  0.1250001249999997   F   F   F
  0.6678043260481794  0.4521261582865734  0.0422352880240891   T   T   T
  0.3339635798764673  0.5494476568151437  0.1253154149382317   T   T   T
  0.6941989754143653  0.6682586486145804  0.0554326127071819   T   T   T
  0.0109310069819440  0.7706230312708952  0.2137988784909743   T   T   T
  0.6484262477981936  0.8829757560415319  0.0325462488990961   T   T   T
  0.0000000000000000  0.0000000000000000  0.4583333750000023   F   F   F
  0.3333330000000032  0.1127666293426088  0.3750001249999997   F   F   F
 -0.0393936777125205  0.2285339935246284  0.4386365361437420   T   T   T
  0.4065998758122897  0.3334311573950798  0.4116335629061430   T   T   T
  0.6928323904500100  0.4475854890424001  0.3047493202250043   T   T   T
  0.3536954715764420  0.5563583336001177  0.3851813607882191   T   T   T
  0.6786631156979577  0.6637599336618826  0.2976646828489782   T   T   T
  0.0167878224278068  0.7825563274748859  0.4667272862139056   T   T   T
  0.6588737793261795  0.8959993310300044  0.2877700146630891   T   T   T
 
  0.00000000E+00  0.00000000E+00  0.00000000E+00
  0.00000000E+00  0.00000000E+00  0.00000000E+00
  0.00000000E+00  0.00000000E+00  0.00000000E+00
  0.00000000E+00  0.00000000E+00  0.00000000E+00
  0.00000000E+00  0.00000000E+00  0.00000000E+00
  0.00000000E+00  0.00000000E+00  0.00000000E+00
  0.00000000E+00  0.00000000E+00  0.00000000E+00
  0.00000000E+00  0.00000000E+00  0.00000000E+00
  0.00000000E+00  0.00000000E+00  0.00000000E+00
  0.00000000E+00  0.00000000E+00  0.00000000E+00
  0.00000000E+00  0.00000000E+00  0.00000000E+00
  0.00000000E+00  0.00000000E+00  0.00000000E+00
  0.00000000E+00  0.00000000E+00  0.00000000E+00
  0.00000000E+00  0.00000000E+00  0.00000000E+00
  0.00000000E+00  0.00000000E+00  0.00000000E+00
  0.00000000E+00  0.00000000E+00  0.00000000E+00
  0.00000000E+00  0.00000000E+00  0.00000000E+00
  0.00000000E+00  0.00000000E+00  0.00000000E+00
  0.00000000E+00  0.00000000E+00  0.00000000E+00
  0.00000000E+00  0.00000000E+00  0.00000000E+00
  0.00000000E+00  0.00000000E+00  0.00000000E+00
  0.00000000E+00  0.00000000E+00  0.00000000E+00
  0.00000000E+00  0.00000000E+00  0.00000000E+00
  0.00000000E+00  0.00000000E+00  0.00000000E+00
  0.00000000E+00  0.00000000E+00  0.00000000E+00
  0.00000000E+00  0.00000000E+00  0.00000000E+00
  0.00000000E+00  0.00000000E+00  0.00000000E+00
  0.00000000E+00  0.00000000E+00  0.00000000E+00
  0.00000000E+00  0.00000000E+00  0.00000000E+00
  0.00000000E+00  0.00000000E+00  0.00000000E+00
