Bi12 Te18
1.0
   3.8545787946211560    0.0000000000000000   -2.2254416726303239
   0.0000000000000051   31.9376606163275873    0.0000000000000020
   0.0000000000000000    0.0000000000000000   17.8035359733835961
Bi Te
12 18
Selective dynamics
direct
   0.6666669999999967    0.7308546295607715    0.0416666250000004 T T T Bi
   0.6666669999999968    0.9358113704392276    0.0416666250000004 T T T Bi
   0.0000000000000000    0.3975216295607684    0.2083333749999996 T T T Bi
   0.0000000000000000    0.6024783704392316    0.2083333749999996 T T T Bi
   0.3333330000000032    0.0641886295607723    0.1250001249999988 F F F Bi
   0.3333330000000030    0.2691453704392283    0.1250001249999988 T T T Bi
   0.6666669999999967    0.7308546295607715    0.2916666250000004 T T T Bi
   0.6666669999999968    0.9358113704392276    0.2916666250000004 F F F Bi
   0.0000000000000000    0.3975216295607684    0.4583333749999996 T T T Bi
   0.0000000000000000    0.6024783704392316    0.4583333749999996 T T T Bi
   0.3333330000000032    0.0641886295607723    0.3750001249999988 T T T Bi
   0.3333330000000030    0.2691453704392283    0.3750001249999988 T T T Bi
   0.3333330000000031    0.8818472093526847    0.1250001249999988 T T T Te
   0.0000000000000000    0.0000000000000000    0.2083333749999996 T T T Te
   0.0000000000000000    0.7848197906473190    0.2083333749999996 F F F Te
   0.6666669999999967    0.5485132093526841    0.0416666250000004 T T T Te
   0.3333330000000031    0.6666669999999968    0.1250001249999988 T T T Te
   0.3333330000000031    0.4514867906473159    0.1250001249999988 T T T Te
   0.0000000000000000    0.2151802093526808    0.2083333749999996 T T T Te
   0.6666669999999967    0.3333330000000032    0.0416666250000004 F F F Te
   0.6666669999999968    0.1181527906473152    0.0416666250000004 T T T Te
   0.3333330000000031    0.8818472093526847    0.3750001249999988 T T T Te
   0.0000000000000000    0.0000000000000000    0.4583333749999996 F F F Te
   0.0000000000000000    0.7848197906473190    0.4583333749999996 T T T Te
   0.6666669999999967    0.5485132093526841    0.2916666250000004 T T T Te
   0.3333330000000031    0.6666669999999968    0.3750001249999988 T T T Te
   0.3333330000000031    0.4514867906473159    0.3750001249999988 T T T Te
   0.0000000000000000    0.2151802093526808    0.4583333749999996 T T T Te
   0.6666669999999967    0.3333330000000032    0.2916666250000004 T T T Te
   0.6666669999999968    0.1181527906473152    0.2916666250000004 F F F Te
