Sb24 Se36                               
   1.00000000000000     
     4.0285177225199735    0.0000000000000000    0.0000000000000002
     0.0000000000000021   12.8369555896708700    0.0000000000000008
     0.0000000000000000    0.0000000000000000   80.7931372748969636
   Sb   Se
    24    36
Selective dynamics
Direct
  0.2500000000000000  0.8690167941342066  0.0667854333809158   T   T   T
  0.7500000000000000  0.1421291840168880  0.0773219724600542   T   T   T
  0.7500000000000000  0.6361676995841813  0.1362681755362622   T   T   T
  0.2500000000000000  0.3619998400238345  0.0052024454906601   F   F   F
  0.7500000000000000  0.9643803924740979  0.0240456315555591   F   F   F
  0.2500000000000000  0.0393931158064785  0.1192950429035272   T   T   T
  0.2500000000000000  0.5216213803932159  0.0947066487506041   T   T   T
  0.7500000000000000  0.4643803924740979  0.0473829398730174   F   F   F
  0.2500000000000000  0.8619998400238345  0.2090832687950481   F   F   F
  0.7500000000000000  0.1366281603159582  0.2197114823312297   T   T   T
  0.7500000000000000  0.6385490112869071  0.2809693037545542   T   T   T
  0.2500000000000000  0.3619998400238345  0.1480595883478060   F   F   F
  0.7500000000000000  0.9643803924740979  0.1669027744126979   F   F   F
  0.2500000000000000  0.0393055436370086  0.2619810007790148   T   T   T
  0.2500000000000000  0.5340397323571225  0.2386434461427898   T   T   T
  0.7500000000000000  0.4643803924740979  0.1902400827301562   F   F   F
  0.2500000000000000  0.8586623246606400  0.3519323363457680   T   T   T
  0.7500000000000000  0.1314531367868276  0.3621040372156582   T   T   T
  0.7500000000000000  0.6257280250417302  0.4191646673642692   T   T   T
  0.2500000000000000  0.3619998400238345  0.2909167312049519   F   F   F
  0.7500000000000000  0.9598562852309122  0.3096805604799469   T   T   T
  0.2500000000000000  0.0431156834207929  0.4058262170104222   T   T   T
  0.2500000000000000  0.5306117903413617  0.3801661641985269   T   T   T
  0.7500000000000000  0.4741668847868498  0.3332698844149036   T   T   T
  0.2500000000000000  0.0550540827354485  0.0539319236524136   T   T   T
  0.7500000000000000  0.9557011604586731  0.0912662300703182   T   T   T
  0.7500000000000000  0.4495772005296868  0.1230603148189556   T   T   T
  0.2500000000000000  0.5347274296725426  0.0201289221513676   T   T   T
  0.7500000000000000  0.8003559533173074  0.0444399488735683   T   T   T
  0.2500000000000000  0.2085857204306482  0.0997649809956108   T   T   T
  0.2500000000000000  0.6964889088529646  0.1135024450611913   T   T   T
  0.7500000000000000  0.2804133976834963  0.0239429077743867   T   T   T
  0.2500000000000000  0.3553302005121700  0.0627946441252826   T   T   T
  0.7500000000000000  0.6128089645863224  0.0766320311950493   T   T   T
  0.7500000000000000  0.1278351468224703  0.1371360617187417   T   T   T
  0.2500000000000000  0.8972654313792172  0.0051633240586970   T   T   T
  0.2500000000000000  0.0468454180638958  0.1953730827535430   T   T   T
  0.7500000000000000  0.9527623012589124  0.2336567420021646   T   T   T
  0.7500000000000000  0.4521520923471998  0.2674041204609889   T   T   T
  0.2500000000000000  0.5499329522203983  0.1607637523298699   T   T   T
  0.7500000000000000  0.7948500456057892  0.1872588647792948   T   T   T
  0.2500000000000000  0.2066713990540051  0.2414525871669783   T   T   T
  0.2500000000000000  0.7022298418270474  0.2586827385285907   T   T   T
  0.7500000000000000  0.2969318744319833  0.1700187483621723   T   T   T
  0.2500000000000000  0.3717522666835222  0.2071286620288872   T   T   T
  0.7500000000000000  0.6248016220137034  0.2213403590168107   T   T   T
  0.7500000000000000  0.1311024140847783  0.2792336637630483   T   T   T
  0.2500000000000000  0.8708105240938043  0.1498203509833505   T   T   T
  0.2500000000000000  0.0442614229013141  0.3378300887221696   T   T   T
  0.7500000000000000  0.9463927161481921  0.3753876876686805   T   T   T
  0.7500000000000000  0.4489365700556519  0.4059790061759903   T   T   T
  0.2500000000000000  0.5478156624328888  0.3049495847859003   T   T   T
  0.7500000000000000  0.7923678615915566  0.3294340299588087   T   T   T
  0.2500000000000000  0.2011217253328021  0.3843992366312202   T   T   T
  0.2500000000000000  0.7130563489585785  0.4010804591167935   T   T   T
  0.7500000000000000  0.3019345826354071  0.3137467252860381   T   T   T
  0.2500000000000000  0.3804142233722794  0.3509445606186600   T   T   T
  0.7500000000000000  0.6361811969242103  0.3641968771097910   T   T   T
  0.7500000000000000  0.1178893641990231  0.4239347515424263   T   T   T
  0.2500000000000000  0.8718515886171468  0.2917770401255604   T   T   T
 
  0.00000000E+00  0.00000000E+00  0.00000000E+00
  0.00000000E+00  0.00000000E+00  0.00000000E+00
  0.00000000E+00  0.00000000E+00  0.00000000E+00
  0.00000000E+00  0.00000000E+00  0.00000000E+00
  0.00000000E+00  0.00000000E+00  0.00000000E+00
  0.00000000E+00  0.00000000E+00  0.00000000E+00
  0.00000000E+00  0.00000000E+00  0.00000000E+00
  0.00000000E+00  0.00000000E+00  0.00000000E+00
  0.00000000E+00  0.00000000E+00  0.00000000E+00
  0.00000000E+00  0.00000000E+00  0.00000000E+00
  0.00000000E+00  0.00000000E+00  0.00000000E+00
  0.00000000E+00  0.00000000E+00  0.00000000E+00
  0.00000000E+00  0.00000000E+00  0.00000000E+00
  0.00000000E+00  0.00000000E+00  0.00000000E+00
  0.00000000E+00  0.00000000E+00  0.00000000E+00
  0.00000000E+00  0.00000000E+00  0.00000000E+00
  0.00000000E+00  0.00000000E+00  0.00000000E+00
  0.00000000E+00  0.00000000E+00  0.00000000E+00
  0.00000000E+00  0.00000000E+00  0.00000000E+00
  0.00000000E+00  0.00000000E+00  0.00000000E+00
  0.00000000E+00  0.00000000E+00  0.00000000E+00
  0.00000000E+00  0.00000000E+00  0.00000000E+00
  0.00000000E+00  0.00000000E+00  0.00000000E+00
  0.00000000E+00  0.00000000E+00  0.00000000E+00
  0.00000000E+00  0.00000000E+00  0.00000000E+00
  0.00000000E+00  0.00000000E+00  0.00000000E+00
  0.00000000E+00  0.00000000E+00  0.00000000E+00
  0.00000000E+00  0.00000000E+00  0.00000000E+00
  0.00000000E+00  0.00000000E+00  0.00000000E+00
  0.00000000E+00  0.00000000E+00  0.00000000E+00
  0.00000000E+00  0.00000000E+00  0.00000000E+00
  0.00000000E+00  0.00000000E+00  0.00000000E+00
  0.00000000E+00  0.00000000E+00  0.00000000E+00
  0.00000000E+00  0.00000000E+00  0.00000000E+00
  0.00000000E+00  0.00000000E+00  0.00000000E+00
  0.00000000E+00  0.00000000E+00  0.00000000E+00
  0.00000000E+00  0.00000000E+00  0.00000000E+00
  0.00000000E+00  0.00000000E+00  0.00000000E+00
  0.00000000E+00  0.00000000E+00  0.00000000E+00
  0.00000000E+00  0.00000000E+00  0.00000000E+00
  0.00000000E+00  0.00000000E+00  0.00000000E+00
  0.00000000E+00  0.00000000E+00  0.00000000E+00
  0.00000000E+00  0.00000000E+00  0.00000000E+00
  0.00000000E+00  0.00000000E+00  0.00000000E+00
  0.00000000E+00  0.00000000E+00  0.00000000E+00
  0.00000000E+00  0.00000000E+00  0.00000000E+00
  0.00000000E+00  0.00000000E+00  0.00000000E+00
  0.00000000E+00  0.00000000E+00  0.00000000E+00
  0.00000000E+00  0.00000000E+00  0.00000000E+00
  0.00000000E+00  0.00000000E+00  0.00000000E+00
  0.00000000E+00  0.00000000E+00  0.00000000E+00
  0.00000000E+00  0.00000000E+00  0.00000000E+00
  0.00000000E+00  0.00000000E+00  0.00000000E+00
  0.00000000E+00  0.00000000E+00  0.00000000E+00
  0.00000000E+00  0.00000000E+00  0.00000000E+00
  0.00000000E+00  0.00000000E+00  0.00000000E+00
  0.00000000E+00  0.00000000E+00  0.00000000E+00
  0.00000000E+00  0.00000000E+00  0.00000000E+00
  0.00000000E+00  0.00000000E+00  0.00000000E+00
  0.00000000E+00  0.00000000E+00  0.00000000E+00
