Sb24 Se36
1.0
   4.0285177225199735    0.0000000000000000    0.0000000000000002
   0.0000000000000021   12.8369555896708700    0.0000000000000008
   0.0000000000000000    0.0000000000000000   80.7931372748969636
Sb Se
24 36
Selective dynamics
direct
   0.2500000000000000    0.8619998400238320    0.0662261259379087 T T T Sb
   0.7500000000000000    0.1380001599761680    0.0766310169192342 T T T Sb
   0.7500000000000000    0.6380001599761679    0.1376546973664801 T T T Sb
   0.2500000000000000    0.3619998400238320    0.0052024454906628 F F F Sb
   0.7500000000000000    0.9643803924740968    0.0240456315555564 F F F Sb
   0.2500000000000000    0.0356196075259031    0.1188115113015865 T T T Sb
   0.2500000000000000    0.5356196075259032    0.0954742029841278 T T T Sb
   0.7500000000000000    0.4643803924740968    0.0473829398730151 F F F Sb
   0.2500000000000000    0.8619998400238320    0.2090832687950515 F F F Sb
   0.7500000000000000    0.1380001599761680    0.2194881597763770 T T T Sb
   0.7500000000000000    0.6380001599761679    0.2805118402236230 T T T Sb
   0.2500000000000000    0.3619998400238320    0.1480595883478056 F F F Sb
   0.7500000000000000    0.9643803924740968    0.1669027744126992 F F F Sb
   0.2500000000000000    0.0356196075259031    0.2616686541587294 T T T Sb
   0.2500000000000000    0.5356196075259032    0.2383313458412706 T T T Sb
   0.7500000000000000    0.4643803924740968    0.1902400827301579 F F F Sb
   0.2500000000000000    0.8619998400238320    0.3519404116521944 T T T Sb
   0.7500000000000000    0.1380001599761680    0.3623453026335199 T T T Sb
   0.7500000000000000    0.6380001599761679    0.4233689830807658 T T T Sb
   0.2500000000000000    0.3619998400238320    0.2909167312049485 F F F Sb
   0.7500000000000000    0.9643803924740968    0.3097599172698421 T T T Sb
   0.2500000000000000    0.0356196075259031    0.4045257970158722 T T T Sb
   0.2500000000000000    0.5356196075259032    0.3811884886984135 T T T Sb
   0.7500000000000000    0.4643803924740968    0.3330972255873008 T T T Sb
   0.2500000000000000    0.0470517913630273    0.0524406479660553 T T T Se
   0.7500000000000000    0.9529482086369726    0.0904164948910875 T T T Se
   0.7500000000000000    0.4529482086369726    0.1238692193946268 T T T Se
   0.2500000000000000    0.5470517913630273    0.0189879234625161 T T T Se
   0.7500000000000000    0.7958550977376966    0.0441573615559396 T T T Se
   0.2500000000000000    0.2041449022623033    0.0986997813012033 T T T Se
   0.2500000000000000    0.7041449022623034    0.1155859329845110 T T T Se
   0.7500000000000000    0.2958550977376966    0.0272712098726319 T T T Se
   0.2500000000000000    0.3724113592787475    0.0646363608407818 T T T Se
   0.7500000000000000    0.6275886407212523    0.0782207820163610 T T T Se
   0.7500000000000000    0.1275886407212524    0.1360649322693532 T T T Se
   0.2500000000000000    0.8724113592787475    0.0067922105877896 T T T Se
   0.2500000000000000    0.0470517913630273    0.1952977908231982 T T T Se
   0.7500000000000000    0.9529482086369726    0.2332736377482303 T T T Se
   0.7500000000000000    0.4529482086369726    0.2667263622517697 T T T Se
   0.2500000000000000    0.5470517913630273    0.1618450663196589 T T T Se
   0.7500000000000000    0.7958550977376966    0.1870145044130824 T T T Se
   0.2500000000000000    0.2041449022623033    0.2415569241583461 T T T Se
   0.2500000000000000    0.7041449022623034    0.2584430758416538 T T T Se
   0.7500000000000000    0.2958550977376966    0.1701283527297747 T T T Se
   0.2500000000000000    0.3724113592787475    0.2074935036979246 T T T Se
   0.7500000000000000    0.6275886407212523    0.2210779248735039 T T T Se
   0.7500000000000000    0.1275886407212524    0.2789220751264961 T T T Se
   0.2500000000000000    0.8724113592787475    0.1496493534449325 T T T Se
   0.2500000000000000    0.0470517913630273    0.3381549336803411 T T T Se
   0.7500000000000000    0.9529482086369726    0.3761307806053732 T T T Se
   0.7500000000000000    0.4529482086369726    0.4095835051089125 T T T Se
   0.2500000000000000    0.5470517913630273    0.3047022091768018 T T T Se
   0.7500000000000000    0.7958550977376966    0.3298716472702253 T T T Se
   0.2500000000000000    0.2041449022623033    0.3844140670154890 T T T Se
   0.2500000000000000    0.7041449022623034    0.4013002186987967 T T T Se
   0.7500000000000000    0.2958550977376966    0.3129854955869176 T T T Se
   0.2500000000000000    0.3724113592787475    0.3503506465550675 T T T Se
   0.7500000000000000    0.6275886407212523    0.3639350677306468 T T T Se
   0.7500000000000000    0.1275886407212524    0.4217792179836389 T T T Se
   0.2500000000000000    0.8724113592787475    0.2925064963020753 T T T Se
